50 8
326 856
413 572
162 225
303 680
933 469
141 304
696 238
213 824
600 846
114 891
430 447
619 933
313 830
448 236
507 139
424 634
825 204
797 233
552 956
317 696
520 539
658 925
140 821
496 691
149 283
546 883
518 787
804 405
140 805
749 111
520 244
244 759
494 547
430 761
900 849
477 127
585 243
548 594
435 668
806 374
907 483
38 910
602 417
231 246
379 606
505 528
193 257
340 884
562 799
898 665
